c colouring generated by benchmark framework
p edge 100 1470
v 1 12
v 2 5
v 3 10
v 4 2
v 5 1
v 6 11
v 7 3
v 8 8
v 9 9
v 10 0
v 11 8
v 12 6
v 13 0
v 14 7
v 15 5
v 16 9
v 17 1
v 18 2
v 19 4
v 20 11
v 21 11
v 22 1
v 23 2
v 24 12
v 25 4
v 26 0
v 27 8
v 28 10
v 29 5
v 30 7
v 31 10
v 32 12
v 33 4
v 34 5
v 35 2
v 36 3
v 37 7
v 38 0
v 39 8
v 40 1
v 41 9
v 42 7
v 43 8
v 44 3
v 45 0
v 46 1
v 47 2
v 48 4
v 49 6
v 50 5
v 51 2
v 52 0
v 53 12
v 54 10
v 55 9
v 56 7
v 57 6
v 58 5
v 59 1
v 60 3
v 61 7
v 62 4
v 63 1
v 64 8
v 65 6
v 66 12
v 67 10
v 68 3
v 69 0
v 70 9
v 71 6
v 72 11
v 73 5
v 74 4
v 75 3
v 76 2
v 77 0
v 78 1
v 79 7
v 80 12
v 81 5
v 82 2
v 83 3
v 84 1
v 85 7
v 86 4
v 87 9
v 88 6
v 89 11
v 90 10
v 91 3
v 92 8
v 93 9
v 94 0
v 95 10
v 96 6
v 97 11
v 98 7
v 99 2
v 100 4
